output/reproduction_ilp.lp
Maximize
  8.1060870186360097e-04 Z_583_0_0 + 6.3825522030207498e-04 Z_583_0_1
   + 0.8093713028718182 Z_583_0_2 + 0.00173776872737184 Z_583_0_3
   + 0.0874420644786442 Z_583_0_4 + 0.00188290936748852 Z_385_0_0
   + 5.3217964658075815e-04 Z_385_0_1 + 0.6504138764870301 Z_385_0_2
   + 0.00387151436389601 Z_385_0_3 + 0.2432995201350046 Z_385_0_4
   + 0.00670311241241982 Z_31_1_0 + 0.0299322593531285 Z_31_1_1
   + 0.0138069008801433 Z_31_1_2 + 0.0510257889460683 Z_31_1_3
   + 0.7985319384082401 Z_31_1_4 + 6.4325755062451262e-04 Z_31_0_0
   + 0.00226848572808959 Z_31_0_1 + 0.0132384414703978 Z_31_0_2
   + 0.8189689925637544 Z_31_0_3 + 0.0648808226871339 Z_31_0_4
   + 0.1624123737011894 Z_44_2_0 + 0.0433789358471774 Z_44_2_1
   + 0.00400714270661531 Z_44_2_2 + 0.6727204316378225 Z_44_2_3
   + 0.0174811161071954 Z_44_2_4 + 7.2981642266357492e-04 Z_44_0_0
   + 5.6786185307801092e-04 Z_44_0_1 + 0.6609427581520548 Z_44_0_2
   + 0.00148294704083519 Z_44_0_3 + 0.2362766165313684 Z_44_0_4
   + 7.2981642266357492e-04 Z_44_1_0 + 5.6786185307801092e-04 Z_44_1_1
   + 0.6609427581520548 Z_44_1_2 + 0.00148294704083519 Z_44_1_3
   + 0.2362766165313684 Z_44_1_4 + 8.4782485429072004e-04 Z_490_1_0
   + 6.6798752461089161e-04 Z_490_1_1 + 0.7162595320011004 Z_490_1_2
   + 0.00223452842713199 Z_490_1_3 + 0.179990127192866 Z_490_1_4
   + 0.00080021 Z_109_1_0 + 0.000631563 Z_109_1_1
   + 0.7689419476452978 Z_109_1_2 + 0.00171412206483602 Z_109_1_3
   + 0.1279121574307923 Z_109_1_4
Subject To
 constraint1_5830: Z_583_0_0 + Z_583_0_1 + Z_583_0_2 + Z_583_0_3
   + Z_583_0_4 <= 1
 constraint1_3850: Z_385_0_0 + Z_385_0_1 + Z_385_0_2 + Z_385_0_3
   + Z_385_0_4 <= 1
 constraint1_311: Z_31_1_0 + Z_31_1_1 + Z_31_1_2 + Z_31_1_3 + Z_31_1_4
   <= 1
 constraint1_310: Z_31_0_0 + Z_31_0_1 + Z_31_0_2 + Z_31_0_3 + Z_31_0_4
   <= 1
 constraint1_442: Z_44_2_0 + Z_44_2_1 + Z_44_2_2 + Z_44_2_3 + Z_44_2_4
   <= 1
 constraint1_440: Z_44_0_0 + Z_44_0_1 + Z_44_0_2 + Z_44_0_3 + Z_44_0_4
   <= 1
 constraint1_441: Z_44_1_0 + Z_44_1_1 + Z_44_1_2 + Z_44_1_3 + Z_44_1_4
   <= 1
 constraint1_4901: Z_490_1_0 + Z_490_1_1 + Z_490_1_2 + Z_490_1_3
   + Z_490_1_4 <= 1
 constraint1_1091: Z_109_1_0 + Z_109_1_1 + Z_109_1_2 + Z_109_1_3
   + Z_109_1_4 <= 1
 constraint2_5830: Z_583_0_0 <= 1
 constraint2_5831: Z_583_0_1 <= 1
 constraint2_5832: Z_583_0_2 <= 1
 constraint2_5833: Z_583_0_3 <= 1
 constraint2_3850: Z_385_0_0 <= 1
 constraint2_3851: Z_385_0_1 <= 1
 constraint2_3852: Z_385_0_2 <= 1
 constraint2_3853: Z_385_0_3 <= 1
 constraint2_310: Z_31_1_0 + Z_31_0_0 <= 1
 constraint2_311: Z_31_1_1 + Z_31_0_1 <= 1
 constraint2_312: Z_31_1_2 + Z_31_0_2 <= 1
 constraint2_313: Z_31_1_3 + Z_31_0_3 <= 1
 constraint2_440: Z_44_2_0 + Z_44_0_0 + Z_44_1_0 <= 1
 constraint2_441: Z_44_2_1 + Z_44_0_1 + Z_44_1_1 <= 1
 constraint2_442: Z_44_2_2 + Z_44_0_2 + Z_44_1_2 <= 1
 constraint2_443: Z_44_2_3 + Z_44_0_3 + Z_44_1_3 <= 1
 constraint2_4900: Z_490_1_0 <= 1
 constraint2_4901: Z_490_1_1 <= 1
 constraint2_4902: Z_490_1_2 <= 1
 constraint2_4903: Z_490_1_3 <= 1
 constraint2_1090: Z_109_1_0 <= 1
 constraint2_1091: Z_109_1_1 <= 1
 constraint2_1092: Z_109_1_2 <= 1
 constraint2_1093: Z_109_1_3 <= 1
 constraint2_2270: <= 1
 constraint2_2271: <= 1
 constraint2_2272: <= 1
 constraint2_2273: <= 1
Bounds
Binaries
 Z_583_0_0 Z_583_0_1 Z_583_0_2 Z_583_0_3 Z_583_0_4 Z_385_0_0 Z_385_0_1
 Z_385_0_2 Z_385_0_3 Z_385_0_4 Z_31_1_0 Z_31_1_1 Z_31_1_2 Z_31_1_3 Z_31_1_4
 Z_31_0_0 Z_31_0_1 Z_31_0_2 Z_31_0_3 Z_31_0_4 Z_44_2_0 Z_44_2_1 Z_44_2_2
 Z_44_2_3 Z_44_2_4 Z_44_0_0 Z_44_0_1 Z_44_0_2 Z_44_0_3 Z_44_0_4 Z_44_1_0
 Z_44_1_1 Z_44_1_2 Z_44_1_3 Z_44_1_4 Z_490_1_0 Z_490_1_1 Z_490_1_2
 Z_490_1_3 Z_490_1_4 Z_109_1_0 Z_109_1_1 Z_109_1_2 Z_109_1_3 Z_109_1_4
End
