output/reproduction_ilp.sol
# Solution for model reproduction_srl_ilp
# Objective value = 6.1324273962984881e+00
Z_583_0_0 0
Z_583_0_1 0
Z_583_0_2 1
Z_583_0_3 0
Z_583_0_4 0
Z_385_0_0 0
Z_385_0_1 0
Z_385_0_2 1
Z_385_0_3 0
Z_385_0_4 0
Z_31_1_0 0
Z_31_1_1 0
Z_31_1_2 0
Z_31_1_3 0
Z_31_1_4 1
Z_31_0_0 0
Z_31_0_1 0
Z_31_0_2 0
Z_31_0_3 1
Z_31_0_4 0
Z_44_2_0 0
Z_44_2_1 0
Z_44_2_2 0
Z_44_2_3 1
Z_44_2_4 0
Z_44_0_0 0
Z_44_0_1 0
Z_44_0_2 0
Z_44_0_3 0
Z_44_0_4 1
Z_44_1_0 0
Z_44_1_1 0
Z_44_1_2 1
Z_44_1_3 0
Z_44_1_4 0
Z_490_1_0 0
Z_490_1_1 0
Z_490_1_2 1
Z_490_1_3 0
Z_490_1_4 0
Z_109_1_0 0
Z_109_1_1 0
Z_109_1_2 1
Z_109_1_3 0
Z_109_1_4 0
